objective value:                     2.75588861673625
x(0,3,0)                                            1 	(obj:0)
x(1,0,0)                                            1 	(obj:0)
x(2,14,0)                                           1 	(obj:0)
x(3,2,0)                                            1 	(obj:0)
x(4,1,0)                                            1 	(obj:0)
x(14,4,0)                                           1 	(obj:0)
xc(0,9)                                             1 	(obj:0)
xc(3,12)                                            1 	(obj:0)
xc(4,14)                                            1 	(obj:0)
u(0,0)                              0.870287014604902 	(obj:0)
u(1,0)                                0.7122756992462 	(obj:0)
u(2,0)                                1.8970667018693 	(obj:0)
u(3,0)                                1.6531488163029 	(obj:0)
u(5,0)                               2.75588861673625 	(obj:0)
u(6,0)                               2.75588861673625 	(obj:0)
u(8,0)                               2.75588861673625 	(obj:0)
u(10,0)                              2.75588861673625 	(obj:0)
u(11,0)                              2.75588861673625 	(obj:0)
u(12,0)                              2.75588861673625 	(obj:0)
u(13,0)                              2.75588861673625 	(obj:0)
u(14,0)                              2.75588861673625 	(obj:0)
u(15,0)                              2.75588861673625 	(obj:0)
u(16,0)                              2.75588861673625 	(obj:0)
u(17,0)                              2.75588861673625 	(obj:0)
u(18,0)                              2.75588861673625 	(obj:0)
u(19,0)                              2.75588861673625 	(obj:0)
f(0,9,0)                                            1 	(obj:0)
f(0,9,1)                                            1 	(obj:0)
f(0,9,2)                                            1 	(obj:0)
f(0,9,3)                                            1 	(obj:0)
f(0,9,4)                                            1 	(obj:0)
f(1,0,1)                                            1 	(obj:0)
f(1,0,2)                                            1 	(obj:0)
f(1,0,3)                                            1 	(obj:0)
f(1,0,4)                                            1 	(obj:0)
f(2,14,2)                                           1 	(obj:0)
f(2,14,3)                                           1 	(obj:0)
f(3,2,3)                                            1 	(obj:0)
f(4,1,2)                                            1 	(obj:0)
f(4,1,3)                                            1 	(obj:0)
f(4,1,4)                                            1 	(obj:0)
f(14,4,2)                                           1 	(obj:0)
f(14,4,3)                                           1 	(obj:0)
z_r(0,)                              2.75588861673625 	(obj:0)
z                                    2.75588861673625 	(obj:1)
